treewidth/data/NonisotropicUnitaryPolarGraph_3_3.gr
p tw 63 1008
1 2
1 13
1 24
1 35
1 46
1 57
1 62
1 4
1 7
1 8
1 9
1 11
1 15
1 16
1 19
1 21
1 23
1 29
1 30
1 31
1 34
1 38
1 40
1 44
1 47
1 48
1 49
1 52
1 54
1 56
1 58
1 59
2 13
2 24
2 35
2 46
2 61
2 62
2 63
2 3
2 5
2 6
2 8
2 9
2 16
2 17
2 20
2 21
2 22
2 27
2 30
2 34
2 36
2 38
2 39
2 40
2 41
2 44
2 45
2 50
2 58
2 59
2 60
13 24
13 35
13 57
13 62
13 63
13 5
13 6
13 8
13 10
13 12
13 14
13 16
13 17
13 21
13 23
13 31
13 32
13 33
13 37
13 38
13 40
13 43
13 45
13 48
13 50
13 53
13 54
13 55
13 56
13 59
24 46
24 57
24 61
24 62
24 63
24 3
24 4
24 6
24 7
24 9
24 10
24 11
24 14
24 17
24 18
24 22
24 23
24 29
24 32
24 33
24 34
24 39
24 41
24 50
24 52
24 53
24 54
24 56
24 58
35 46
35 57
35 62
35 63
35 4
35 8
35 10
35 11
35 17
35 18
35 21
35 22
35 25
35 26
35 27
35 28
35 30
35 31
35 32
35 38
35 40
35 42
35 45
35 47
35 51
35 55
35 56
35 58
35 60
46 57
46 61
46 63
46 5
46 6
46 9
46 11
46 15
46 17
46 18
46 19
46 22
46 25
46 26
46 33
46 39
46 40
46 41
46 44
46 47
46 48
46 49
46 51
46 54
46 55
46 56
46 59
46 60
57 3
57 4
57 6
57 7
57 8
57 10
57 11
57 12
57 14
57 15
57 17
57 19
57 22
57 23
57 25
57 28
57 30
57 32
57 33
57 42
57 44
57 45
57 48
57 49
57 50
57 59
57 60
61 62
61 3
61 5
61 7
61 9
61 11
61 14
61 16
61 18
61 20
61 25
61 26
61 27
61 28
61 32
61 33
61 38
61 40
61 44
61 45
61 48
61 49
61 50
61 52
61 53
61 54
61 55
61 58
61 60
62 3
62 4
62 7
62 8
62 10
62 11
62 15
62 16
62 18
62 20
62 21
62 25
62 32
62 33
62 36
62 38
62 39
62 40
62 41
62 42
62 43
62 47
62 52
62 53
62 55
62 59
63 3
63 5
63 6
63 9
63 10
63 11
63 12
63 16
63 21
63 22
63 26
63 27
63 28
63 29
63 31
63 32
63 33
63 37
63 39
63 41
63 42
63 43
63 44
63 47
63 48
63 56
63 58
3 5
3 6
3 7
3 8
3 11
3 12
3 17
3 18
3 21
3 27
3 28
3 29
3 30
3 32
3 33
3 34
3 36
3 37
3 42
3 44
3 47
3 49
3 52
3 53
3 59
3 60
4 7
4 9
4 12
4 15
4 16
4 17
4 19
4 20
4 21
4 22
4 25
4 26
4 28
4 29
4 30
4 32
4 33
4 34
4 36
4 39
4 42
4 45
4 53
4 54
4 55
4 56
4 58
5 8
5 12
5 14
5 15
5 16
5 17
5 18
5 20
5 22
5 25
5 26
5 27
5 29
5 30
5 31
5 32
5 33
5 34
5 36
5 40
5 43
5 48
5 49
5 54
5 56
5 59
6 7
6 8
6 9
6 12
6 18
6 19
6 22
6 23
6 28
6 31
6 36
6 37
6 39
6 40
6 41
6 42
6 43
6 45
6 49
6 53
6 54
6 55
6 58
6 59
6 60
7 8
7 9
7 10
7 12
7 14
7 20
7 25
7 27
7 28
7 29
7 34
7 38
7 41
7 42
7 43
7 47
7 48
7 49
7 54
7 55
7 56
7 58
7 59
7 60
8 12
8 14
8 15
8 18
8 19
8 20
8 21
8 22
8 25
8 27
8 29
8 31
8 37
8 38
8 39
8 40
8 42
8 49
8 50
8 52
8 56
8 60
9 12
9 14
9 16
9 17
9 19
9 20
9 21
9 22
9 23
9 26
9 27
9 28
9 30
9 31
9 38
9 39
9 41
9 47
9 48
9 49
9 52
9 53
9 55
10 11
10 12
10 14
10 17
10 20
10 22
10 23
10 25
10 26
10 27
10 31
10 33
10 36
10 38
10 41
10 42
10 43
10 44
10 47
10 50
10 51
10 52
10 54
10 58
10 59
11 14
11 15
11 18
11 19
11 21
11 26
11 27
11 31
11 32
11 34
11 39
11 42
11 43
11 44
11 45
11 48
11 49
11 51
11 52
11 53
11 58
11 59
12 16
12 17
12 19
12 20
12 21
12 22
12 26
12 32
12 36
12 38
12 42
12 43
12 44
12 48
12 49
12 51
12 52
12 53
12 54
12 56
12 60
14 15
14 17
14 18
14 20
14 21
14 22
14 23
14 27
14 28
14 29
14 31
14 33
14 34
14 38
14 39
14 43
14 45
14 48
14 49
14 50
14 51
14 55
15 16
15 18
15 19
15 20
15 22
15 23
15 26
15 29
15 31
15 32
15 33
15 34
15 36
15 37
15 38
15 39
15 41
15 42
15 44
15 48
15 55
15 59
15 60
16 20
16 23
16 30
16 31
16 32
16 33
16 36
16 39
16 42
16 43
16 44
16 45
16 47
16 48
16 49
16 50
16 52
16 55
16 56
16 58
16 60
17 18
17 19
17 20
17 21
17 23
17 26
17 27
17 30
17 33
17 34
17 36
17 47
17 50
17 51
17 53
17 55
17 56
17 59
17 60
18 19
18 20
18 22
18 23
18 28
18 29
18 31
18 32
18 36
18 40
18 43
18 47
18 51
18 52
18 53
18 55
18 56
18 58
18 60
19 20
19 21
19 23
19 25
19 26
19 27
19 28
19 36
19 37
19 39
19 40
19 43
19 44
19 48
19 50
19 52
19 53
19 56
19 58
19 59
20 21
20 22
20 25
20 26
20 29
20 31
20 41
20 43
20 44
20 45
20 47
20 50
20 53
20 58
20 59
20 60
21 26
21 28
21 29
21 33
21 34
21 37
21 38
21 39
21 40
21 43
21 44
21 45
21 47
21 49
21 51
21 53
22 25
22 28
22 29
22 30
22 31
22 32
22 36
22 38
22 39
22 41
22 44
22 45
22 51
22 52
22 54
23 26
23 28
23 30
23 31
23 32
23 33
23 34
23 36
23 37
23 38
23 40
23 41
23 43
23 47
23 49
23 50
23 52
23 58
23 60
25 26
25 27
25 28
25 30
25 32
25 33
25 37
25 39
25 40
25 41
25 43
25 45
25 47
25 49
25 50
25 52
25 54
25 56
25 59
26 27
26 31
26 32
26 33
26 34
26 37
26 38
26 40
26 41
26 42
26 49
26 53
26 54
26 58
26 60
27 28
27 30
27 31
27 34
27 36
27 37
27 38
27 39
27 42
27 48
27 50
27 52
27 55
27 56
27 58
27 59
28 29
28 30
28 32
28 33
28 36
28 37
28 38
28 40
28 43
28 44
28 45
28 47
28 48
28 55
28 58
29 30
29 31
29 33
29 34
29 37
29 40
29 41
29 42
29 44
29 47
29 48
29 50
29 51
29 53
29 54
29 56
29 58
30 31
30 32
30 34
30 36
30 40
30 41
30 42
30 45
30 47
30 48
30 49
30 50
30 51
30 52
30 53
30 59
31 37
31 42
31 45
31 47
31 49
31 52
31 53
31 54
31 55
31 58
31 59
32 34
32 37
32 38
32 41
32 43
32 45
32 48
32 52
32 53
32 56
32 60
33 36
33 37
33 39
33 40
33 42
33 44
33 47
33 49
33 50
33 54
33 55
34 36
34 37
34 38
34 39
34 41
34 43
34 45
34 49
34 51
34 54
34 56
34 58
34 59
34 60
36 38
36 39
36 40
36 42
36 43
36 44
36 51
36 52
36 54
36 55
36 58
36 59
37 38
37 39
37 41
37 44
37 45
37 47
37 50
37 52
37 53
37 54
37 55
37 56
37 59
37 60
38 40
38 41
38 44
38 48
38 51
38 52
38 54
38 55
38 60
39 41
39 42
39 43
39 45
39 49
39 50
39 51
39 52
39 55
39 56
40 41
40 42
40 43
40 48
40 49
40 50
40 51
40 53
40 54
40 58
41 42
41 43
41 47
41 48
41 50
41 51
41 53
41 59
41 60
42 48
42 49
42 50
42 51
42 53
42 55
42 58
42 60
43 45
43 47
43 48
43 49
43 51
43 56
43 58
43 59
44 45
44 47
44 48
44 50
44 51
44 52
44 54
44 58
44 59
44 60
45 49
45 50
45 51
45 53
45 54
45 55
45 58
45 59
45 60
47 49
47 51
47 52
47 55
47 56
47 59
47 60
48 50
48 51
48 53
48 55
48 56
48 59
49 51
49 52
49 54
49 60
50 51
50 52
50 53
50 56
50 58
50 60
51 52
51 53
51 54
51 55
51 56
51 60
52 53
52 54
52 56
53 54
53 55
53 59
54 55
54 56
54 58
54 59
55 56
55 59
55 60
56 58
56 60
58 60
