treewidth/data/NonisotropicUnitaryPolarGraph_3_3.td
c width = 53, time = 18.074768
s td 6 54 63
b 1 2 4 6 7 9 11 12 13 14 15 16 17 18 20 21 22 23 24 25 26 27 28 29 30 31 32 33 34 35 36 37 38 39 40 42 43 44 46 47 48 49 50 51 52 53 54 56 57 58 59 60 61 62 63
b 2 2 4 6 7 8 9 11 12 13 14 15 16 17 18 20 21 22 23 24 25 26 27 28 29 30 31 32 33 34 35 36 37 38 39 40 42 43 44 46 47 48 49 50 52 53 54 56 57 58 59 60 61 62 63
b 3 1 2 4 6 7 8 9 11 12 13 15 16 17 18 19 20 21 23 24 25 26 27 28 29 30 31 34 35 36 37 38 39 40 43 44 46 47 48 49 50 52 53 54 56 57 58 59 62
b 4 2 3 5 6 7 8 11 12 13 14 15 16 17 18 20 21 22 24 25 26 27 28 29 30 31 32 33 34 36 37 40 42 43 44 46 47 48 49 52 53 54 56 57 59 60 61 62 63
b 5 2 6 7 9 10 11 12 13 14 15 17 20 22 23 24 25 26 27 29 30 31 32 33 34 35 36 37 38 39 40 41 42 43 44 46 47 48 50 51 52 53 54 57 58 59 60 62 63
b 6 2 4 6 7 9 11 13 14 15 16 17 18 20 21 22 25 27 28 30 31 32 33 34 35 36 37 38 39 42 43 44 45 46 47 48 49 50 51 53 54 55 56 57 58 59 60 61 62
2 3
2 4
1 2
1 5
1 6
